# Solution for model GasLib-40
# Objective value = 2.3246035561700449e+01
loadshed[innode_1] 0
loadshed[innode_2] 0
loadshed[innode_3] 0
loadshed[innode_4] 0
loadshed[innode_5] 0
loadshed[innode_6] 0
loadshed[innode_7] 0
loadshed[innode_8] 0
loadshed[source_1] -1.2574905561451510e-01
loadshed[source_2] 3.6532342053132161e-02
loadshed[source_3] 0.236259503848395
loadshed[sink_1] 0
loadshed[sink_2] 0
loadshed[sink_3] 0
loadshed[sink_4] 0
loadshed[sink_5] 0
loadshed[sink_6] 0
loadshed[sink_7] 0
loadshed[sink_8] 0
loadshed[sink_9] 0
loadshed[sink_10] 0
loadshed[sink_11] 0
loadshed[sink_12] 1
loadshed[sink_13] 0
loadshed[sink_14] 0
loadshed[sink_15] 0
loadshed[sink_16] 0
loadshed[sink_17] 0
loadshed[sink_18] 0
loadshed[sink_19] 0
loadshed[sink_20] 0
loadshed[sink_21] 0.421413639441556
loadshed[sink_22] 0
loadshed[sink_23] 0
loadshed[sink_24] 0
loadshed[sink_25] 0
loadshed[sink_26] 0
loadshed[sink_27] 0
loadshed[sink_28] 0
loadshed[sink_29] 0
flow[source_1,sink_3] 1.7796998091016968e+02
flow[innode_1,sink_16] 1.6354166666666970e+01
flow[innode_6,sink_13] -6.2607805200780859e+00
flow[sink_13,sink_14] -2.2614947186744754e+01
flow[sink_14,sink_10] -3.8969113853411422e+01
flow[sink_25,sink_26] 1.5806505671283617e+02
flow[sink_26,sink_9] 8.1770833333333655e+01
flow[sink_9,sink_18] 6.5416666666666671e+01
flow[sink_26,sink_4] 5.9940056712835855e+01
flow[sink_4,sink_20] -4.7647241058798613e+01
flow[sink_18,sink_6] 4.9062500000000313e+01
flow[sink_25,innode_8] -1.4526164757683330e+02
flow[sink_6,sink_7] 0
flow[sink_6,sink_22] 3.2708333333333641e+01
flow[sink_7,sink_24] 2.5816464438299555e+01
flow[sink_22,sink_1] 1.6354166666666970e+01
flow[sink_24,sink_21] 9.4622977716328869e+00
flow[sink_21,sink_12] 0
flow[sink_7,sink_5] -4.2170631104966219e+01
flow[sink_5,sink_17] -5.8524797771632890e+01
flow[sink_17,sink_4] -9.1233131104967924e+01
flow[sink_17,sink_8] 1.6354166666668334e+01
flow[sink_3,sink_23] 16.3541666666697
flow[sink_8,sink_20] 0
flow[sink_25,sink_20] 6.4001407725465356e+01
flow[sink_25,sink_15] -8.6898203008057422e+01
flow[sink_15,sink_29] -5.8156877914087076e+01
flow[sink_29,sink_28] 1.6354166666667879e+01
flow[sink_29,sink_2] 6.1449658427303689e+01
flow[sink_2,sink_15] 4.5095491760637017e+01
flow[sink_29,innode_7] -1.5231486967472532e+02
flow[innode_4,sink_19] 4.6867993905846816e+01
flow[sink_19,innode_3] 4.2959055979225248e+01
flow[innode_4,innode_5] 7.3871953280898225e+01
flow[sink_27,innode_5] -7.3871953280898225e+01
flow[sink_27,sink_19] 5.7517786614231554e+01
flow[sink_10,sink_11] 3.2708333333333641e+01
flow[sink_10,innode_2] -4.5072557874186479e+01
flow[sink_10,innode_3] -4.2959055979225248e+01
flow[innode_6,sink_25] 6.2607805200780859e+00
flow[sink_11,innode_1] 1.6354166666666970e+01
flow[sink_19,innode_2] 4.5072557874186479e+01
flow[source_3,innode_4] 1.2073994718674504e+02
flow[source_2,innode_7] 1.5231486967472532e+02
flow[sink_3,innode_8] 1.4526164757683330e+02
pressure[innode_1] 7.6580535999529857e+01
pressure[innode_2] 7.9114508146545035e+01
pressure[innode_3] 7.9019380181664417e+01
pressure[innode_4] 81.01325
pressure[innode_5] 8.0962436975253240e+01
pressure[innode_6] 7.4814066929100434e+01
pressure[innode_7] 81.01325
pressure[innode_8] 8.0418364340814264e+01
pressure[source_1] 81.01325
pressure[source_2] 81.01325
pressure[source_3] 81.01325
pressure[sink_1] 5.3009279977718435e+01
pressure[sink_2] 7.5382834730908087e+01
pressure[sink_3] 8.0418364340814264e+01
pressure[sink_4] 5.6060703869013366e+01
pressure[sink_5] 4.8214400025534175e+01
pressure[sink_6] 5.5110357588105806e+01
pressure[sink_7] 3.0675964323801075e+01
pressure[sink_8] 5.1956989234718563e+01
pressure[sink_9] 5.8787442391564092e+01
pressure[sink_10] 76.7322373071334
pressure[sink_11] 7.6580535999529857e+01
pressure[sink_12] 1.0132499999999987e+00
pressure[sink_13] 74.848581565834
pressure[sink_14] 7.4889052940192229e+01
pressure[sink_15] 75.2356078891959
pressure[sink_16] 7.5558886164712177e+01
pressure[sink_17] 5.2574074430132185e+01
pressure[sink_18] 5.6420472416365435e+01
pressure[sink_19] 7.9114508146545035e+01
pressure[sink_20] 5.9556327020666281e+01
pressure[sink_21] 1.0132499999999987e+00
pressure[sink_22] 5.4073049120073442e+01
pressure[sink_23] 8.0253646329154478e+01
pressure[sink_24] 1.1180361562977055e+00
pressure[sink_25] 7.4814066929100434e+01
pressure[sink_26] 6.3681637811275444e+01
pressure[sink_27] 8.0349436263714338e+01
pressure[sink_28] 7.6644141655400333e+01
pressure[sink_29] 7.6939423929017522e+01
interdiction[source_1,sink_3] 0
interdiction[innode_1,sink_16] 0
interdiction[innode_6,sink_13] 0
interdiction[sink_13,sink_14] 0
interdiction[sink_14,sink_10] 0
interdiction[sink_25,sink_26] 0
interdiction[sink_26,sink_9] 0
interdiction[sink_9,sink_18] 0
interdiction[sink_26,sink_4] 0
interdiction[sink_4,sink_20] 0
interdiction[sink_18,sink_6] 0
interdiction[sink_25,innode_8] 0
interdiction[sink_6,sink_7] 1
interdiction[sink_6,sink_22] 0
interdiction[sink_7,sink_24] 0
interdiction[sink_22,sink_1] 0
interdiction[sink_24,sink_21] 0
interdiction[sink_21,sink_12] 0
interdiction[sink_7,sink_5] 0
interdiction[sink_5,sink_17] 0
interdiction[sink_17,sink_4] 0
interdiction[sink_17,sink_8] 0
interdiction[sink_3,sink_23] 0
interdiction[sink_8,sink_20] 1
interdiction[sink_25,sink_20] 0
interdiction[sink_25,sink_15] 0
interdiction[sink_15,sink_29] 0
interdiction[sink_29,sink_28] 0
interdiction[sink_29,sink_2] 0
interdiction[sink_2,sink_15] 0
interdiction[sink_29,innode_7] 0
interdiction[innode_4,sink_19] 0
interdiction[sink_19,innode_3] 0
interdiction[innode_4,innode_5] 0
interdiction[sink_27,innode_5] 0
interdiction[sink_27,sink_19] 0
interdiction[sink_10,sink_11] 0
interdiction[sink_10,innode_2] 0
interdiction[sink_10,innode_3] 0
interdiction[innode_6,sink_25] 0
interdiction[sink_11,innode_1] 0
interdiction[sink_19,innode_2] 0
interdiction[source_3,innode_4] 0
interdiction[source_2,innode_7] 0
interdiction[sink_3,innode_8] 0
WCcheckFlow[source_1,sink_3] 39
WCcheckFlow[innode_1,sink_16] 1
WCcheckFlow[innode_6,sink_13] 13
WCcheckFlow[sink_13,sink_14] 12
WCcheckFlow[sink_14,sink_10] 11
WCcheckFlow[sink_25,sink_26] 15
WCcheckFlow[sink_26,sink_9] 5
WCcheckFlow[sink_9,sink_18] 4
WCcheckFlow[sink_26,sink_4] 9
WCcheckFlow[sink_4,sink_20] 1
WCcheckFlow[sink_18,sink_6] 3
WCcheckFlow[sink_25,innode_8] -36
WCcheckFlow[sink_6,sink_7] 0
WCcheckFlow[sink_6,sink_22] 2
WCcheckFlow[sink_7,sink_24] 3
WCcheckFlow[sink_22,sink_1] 1
WCcheckFlow[sink_24,sink_21] 2
WCcheckFlow[sink_21,sink_12] 1
WCcheckFlow[sink_7,sink_5] -4
WCcheckFlow[sink_5,sink_17] -5
WCcheckFlow[sink_17,sink_4] -7
WCcheckFlow[sink_17,sink_8] 1
WCcheckFlow[sink_3,sink_23] 1
WCcheckFlow[sink_8,sink_20] 0
WCcheckFlow[sink_25,sink_20] 0
WCcheckFlow[sink_25,sink_15] 6
WCcheckFlow[sink_15,sink_29] 5
WCcheckFlow[sink_29,sink_28] 1
WCcheckFlow[sink_29,sink_2] 1
WCcheckFlow[sink_2,sink_15] 0
WCcheckFlow[sink_29,innode_7] 2
WCcheckFlow[innode_4,sink_19] -4
WCcheckFlow[sink_19,innode_3] -5
WCcheckFlow[innode_4,innode_5] 2
WCcheckFlow[sink_27,innode_5] -1
WCcheckFlow[sink_27,sink_19] 0
WCcheckFlow[sink_10,sink_11] 3
WCcheckFlow[sink_10,innode_2] 1
WCcheckFlow[sink_10,innode_3] 6
WCcheckFlow[innode_6,sink_25] -14
WCcheckFlow[sink_11,innode_1] 2
WCcheckFlow[sink_19,innode_2] 0
WCcheckFlow[source_3,innode_4] -1
WCcheckFlow[source_2,innode_7] -1
WCcheckFlow[sink_3,innode_8] 37
